c DCNF-Autarky [version 0.0.1]. 
c Copyright (c) 2018-2019 Swansea University. 
c 
c Input QBF/DQBF path: Castellini18//toilet_c_06_05.2.qdimacs
c Output SAT Translation Path: /tmp/toilet_c_06_05.2.qdimacs-dcnfAutarky.dimacs
c Input Clause Count (tautology free): 577
c
c Performing E1-Autarky iteration.
c Remaining clauses count after E-Reduction: 412
c
c Performing A1-Autarky iteration.
c Running Lingeling ... 
c
c Remaining clauses count after A-Reduction: 412
c
c Input Parameter (command line, file): 
c input filename   Castellini18//toilet_c_06_05.2.qdimacs
c output filename  /tmp/toilet_c_06_05.2.qdimacs-dcnfAutarky.dimacs
c autarky level    1
c conformity level 0
c encoding type    2
c no.of var        107
c no.of clauses    577
c no.of taut cls   0
c 
c Output Parameters: 
c remaining no.of clauses  412
c
c filename pn pc autarky ntaut rpa rpe rpcdiff result
c "Castellini18//toilet_c_06_05.2.qdimacs" 107 577 "E1+A1" 0 3 69 165 "RED" 
p cnf 107 412
e 12 13 14 15 16 17 18 19 20 21 22 23 24 25 26 27 28 29 30 31 32 33 34 35 36 37 38 39 40 41 42 43 44 45 46 47 48 49 50 51 52 53 54 55 56 57 58 59 60 61 62 63 64 65 66 67 68 69 70 71 72 73 74 75 76 77 78 79 80 81 0
a 89 88 90 0
e 1 2 3 4 5 6 7 8 9 10 11 82 83 84 85 86 87 91 92 93 94 95 96 97 98 99 100 101 102 103 104 105 106 107 0
-89 -91 88 90 0
-89 -92 88 90 0
-89 -93 88 90 0
-89 88 90 94 0
-89 -95 88 90 0
-89 -96 88 90 0
-88 -90 -91 89 0
-88 -90 -92 89 0
-88 -90 89 93 0
-88 -90 -94 89 0
-88 -90 -95 89 0
-88 -90 -96 89 0
-88 -91 89 90 0
-88 89 90 92 0
-88 -93 89 90 0
-88 -94 89 90 0
-88 -95 89 90 0
-88 -96 89 90 0
-90 88 89 91 0
-90 -92 88 89 0
-90 -93 88 89 0
-90 -94 88 89 0
-90 -95 88 89 0
-90 -96 88 89 0
-91 88 89 90 0
-92 88 89 90 0
-93 88 89 90 0
-94 88 89 90 0
-95 88 89 90 0
88 89 90 96 0
-89 -90 -91 88 0
-89 -90 -92 88 0
-89 -90 -93 88 0
-89 -90 -94 88 0
-89 -90 88 95 0
-89 -90 -96 88 0
-97 0
-98 0
-99 0
-100 0
-101 0
-102 0
-103 0
-104 0
-105 0
-106 0
-107 0
-12 -107 0
-12 -101 0
-14 -102 0
-14 -107 0
-16 -103 0
-16 -107 0
-18 -104 0
-18 -107 0
-20 -105 0
-20 -107 0
-22 -106 0
-22 -107 0
-26 -97 0
-26 -101 0
-28 -97 0
-28 -102 0
-30 -97 0
-30 -103 0
-32 -97 0
-32 -104 0
-34 -97 0
-34 -105 0
-36 -97 0
-36 -106 0
-40 -98 0
-40 -101 0
-42 -98 0
-42 -102 0
-44 -98 0
-44 -103 0
-46 -98 0
-46 -104 0
-48 -98 0
-48 -105 0
-50 -98 0
-50 -106 0
-54 -99 0
-54 -101 0
-56 -99 0
-56 -102 0
-58 -99 0
-58 -103 0
-60 -99 0
-60 -104 0
-62 -99 0
-62 -105 0
-64 -99 0
-64 -106 0
-68 -100 0
-68 -101 0
-70 -100 0
-70 -102 0
-72 -100 0
-72 -103 0
-74 -100 0
-74 -104 0
-76 -100 0
-76 -105 0
-78 -100 0
-78 -106 0
-23 107 0
-37 97 0
-51 98 0
-65 99 0
-79 100 0
-12 2 0
-12 -82 0
-12 1 0
-14 3 0
-14 -83 0
-14 2 0
-16 4 0
-16 -84 0
-16 2 0
-18 5 0
-18 -85 0
-18 2 0
-20 6 0
-20 -86 0
-20 2 0
-22 7 0
-22 -87 0
-22 2 0
-26 8 0
-26 -82 0
-26 1 0
-28 8 0
-28 -83 0
-28 3 0
-30 8 0
-30 -84 0
-30 4 0
-32 8 0
-32 -85 0
-32 5 0
-34 8 0
-34 -86 0
-34 6 0
-36 8 0
-36 -87 0
-36 7 0
-40 9 0
-40 -82 0
-40 1 0
-42 9 0
-42 -83 0
-42 3 0
-44 9 0
-44 -84 0
-44 4 0
-46 9 0
-46 -85 0
-46 5 0
-48 9 0
-48 -86 0
-48 6 0
-50 9 0
-50 -87 0
-50 7 0
-54 10 0
-54 -82 0
-54 1 0
-56 10 0
-56 -83 0
-56 3 0
-58 10 0
-58 -84 0
-58 4 0
-60 10 0
-60 -85 0
-60 5 0
-62 10 0
-62 -86 0
-62 6 0
-64 10 0
-64 -87 0
-64 7 0
-68 11 0
-68 -82 0
-68 1 0
-70 11 0
-70 -83 0
-70 3 0
-72 11 0
-72 -84 0
-72 4 0
-74 11 0
-74 -85 0
-74 5 0
-76 11 0
-76 -86 0
-76 6 0
-78 11 0
-78 -87 0
-78 7 0
-2 -23 0
-8 -37 0
-9 -51 0
-10 -65 0
-11 -79 0
-1 12 26 40 54 68 101 0
-101 1 0
-2 12 14 16 18 20 22 107 0
-107 2 23 0
-82 96 0
-96 12 26 40 54 68 82 0
-3 14 28 42 56 70 102 0
-102 3 0
-83 91 0
-91 14 28 42 56 70 83 0
-4 16 30 44 58 72 103 0
-103 4 0
-84 92 0
-92 16 30 44 58 72 84 0
-5 18 32 46 60 74 104 0
-104 5 0
-85 93 0
-93 18 32 46 60 74 85 0
-6 20 34 48 62 76 105 0
-105 6 0
-86 94 0
-94 20 34 48 62 76 86 0
-7 22 36 50 64 78 106 0
-106 7 0
-87 95 0
-95 22 36 50 64 78 87 0
-8 26 28 30 32 34 36 97 0
-97 8 37 0
-9 40 42 44 46 48 50 98 0
-98 9 51 0
-10 54 56 58 60 62 64 99 0
-99 10 65 0
-11 68 70 72 74 76 78 100 0
-100 11 79 0
-12 -14 0
-12 -16 0
-12 -18 0
-12 -20 0
-12 -22 0
-12 -26 0
-12 -40 0
-12 -54 0
-12 -68 0
-12 -23 0
-14 -16 0
-14 -18 0
-14 -20 0
-14 -22 0
-14 -28 0
-14 -42 0
-14 -56 0
-14 -70 0
-14 -23 0
-16 -18 0
-16 -20 0
-16 -22 0
-16 -30 0
-16 -44 0
-16 -58 0
-16 -72 0
-16 -23 0
-18 -20 0
-18 -22 0
-18 -32 0
-18 -46 0
-18 -60 0
-18 -74 0
-18 -23 0
-20 -22 0
-20 -34 0
-20 -48 0
-20 -62 0
-20 -76 0
-20 -23 0
-22 -36 0
-22 -50 0
-22 -64 0
-22 -78 0
-22 -23 0
-26 -28 0
-26 -30 0
-26 -32 0
-26 -34 0
-26 -36 0
-26 -40 0
-26 -54 0
-26 -68 0
-26 -37 0
-28 -30 0
-28 -32 0
-28 -34 0
-28 -36 0
-28 -42 0
-28 -56 0
-28 -70 0
-28 -37 0
-30 -32 0
-30 -34 0
-30 -36 0
-30 -44 0
-30 -58 0
-30 -72 0
-30 -37 0
-32 -34 0
-32 -36 0
-32 -46 0
-32 -60 0
-32 -74 0
-32 -37 0
-34 -36 0
-34 -48 0
-34 -62 0
-34 -76 0
-34 -37 0
-36 -50 0
-36 -64 0
-36 -78 0
-36 -37 0
-40 -42 0
-40 -44 0
-40 -46 0
-40 -48 0
-40 -50 0
-40 -54 0
-40 -68 0
-40 -51 0
-42 -44 0
-42 -46 0
-42 -48 0
-42 -50 0
-42 -56 0
-42 -70 0
-42 -51 0
-44 -46 0
-44 -48 0
-44 -50 0
-44 -58 0
-44 -72 0
-44 -51 0
-46 -48 0
-46 -50 0
-46 -60 0
-46 -74 0
-46 -51 0
-48 -50 0
-48 -62 0
-48 -76 0
-48 -51 0
-50 -64 0
-50 -78 0
-50 -51 0
-54 -56 0
-54 -58 0
-54 -60 0
-54 -62 0
-54 -64 0
-54 -68 0
-54 -65 0
-56 -58 0
-56 -60 0
-56 -62 0
-56 -64 0
-56 -70 0
-56 -65 0
-58 -60 0
-58 -62 0
-58 -64 0
-58 -72 0
-58 -65 0
-60 -62 0
-60 -64 0
-60 -74 0
-60 -65 0
-62 -64 0
-62 -76 0
-62 -65 0
-64 -78 0
-64 -65 0
-68 -70 0
-68 -72 0
-68 -74 0
-68 -76 0
-68 -78 0
-68 -79 0
-70 -72 0
-70 -74 0
-70 -76 0
-70 -78 0
-70 -79 0
-72 -74 0
-72 -76 0
-72 -78 0
-72 -79 0
-74 -76 0
-74 -78 0
-74 -79 0
-76 -78 0
-76 -79 0
-78 -79 0
-82 0
-83 0
-84 0
-85 0
-86 0
-87 0
